STP File, STP Format Version 1.0

SECTION Comments
Name "prepro"
Creator "morete"
Problem "Prize-Collecting Steiner Problem in Graphs"
END

SECTION Graph
Nodes 4
Edges 6
E 1 2 100
E 1 3 100
E 1 4 4
E 2 4 55
E 3 4 120
E 2 3 101
END

SECTION Terminals
Terminals 4
TP 1 5
TP 2 100
TP 3 100
TP 4 20
END

EOF
